# Lammps input script
units real
atom_style full
bond_style harmonic
angle_style charmm
dihedral_style charmm
pair_style lj/cut/tip4p/long 1 2 1 1 0.1546 12.0
kspace_style pppm/tip4p 1.0e-4


region box block -40 40 -15 15 -15 15
create_box 7 box &
bond/types 6 &
angle/types 9 &
dihedral/types 14 &
extra/bond/per/atom 2 &
extra/angle/per/atom 1 &
extra/special/per/atom 2

#pair_modify shift yes
neigh_modify every 1 delay 0 check yes

include ../PARM.lmp

molecule h2omol Tip4p2005.txt
create_atoms 0 random 200 456415 NULL mol h2omol 454756

group H2O type 1 2
delete_atoms overlap 2 H2O H2O mol yes

fix myshk H2O shake 1.0e-5 200 0 b 1 a 1 mol h2omol
fix mynpt all npt temp 300 300 100 iso 1 1 1000

dump mydmp all atom 1000 dump.lammpstrj

variable mytemp equal temp
variable myvol equal vol
fix myat1 all ave/time 10 10 100 v_mytemp file temperature.dat
fix myat2 all ave/time 10 10 100 v_myvol file volume.dat
variable myoxy equal count(H2O)/3 # divide by 3 to get the number of molecule, not atom
variable mydensity equal ${myoxy}/v_myvol
fix myat3 all ave/time 10 10 100 v_mydensity file density.dat
thermo 1000

timestep 0.1
run 250000
#write_data H2O.data
